p cnf 12 50 
1 6 8 0
7 -1 12 0
-8 12 -4 0
10 -5 1 0
-2 -8 -11 0
-5 -8 6 0
-12 -8 -10 0
-1 -8 -9 0
11 -1 -2 0
6 11 -12 0
-12 4 2 0
12 11 -5 0
-10 9 11 0
-6 -5 -8 0
-7 -11 2 0
-2 -11 -3 0
-6 3 8 0
-11 1 -12 0
-1 -5 12 0
11 12 6 0
-5 2 -12 0
-11 9 -4 0
9 -4 -7 0
-3 10 -7 0
-4 11 -12 0
9 8 6 0
9 4 -1 0
-10 3 -1 0
12 -4 -6 0
2 -7 4 0
-7 9 -3 0
2 -11 -12 0
11 -4 5 0
8 9 -12 0
1 3 11 0
-12 -5 4 0
-6 -8 -12 0
3 4 -2 0
-8 -3 -9 0
-7 12 -9 0
-5 -4 -10 0
5 2 -9 0
5 7 -4 0
-6 9 1 0
7 -3 5 0
-1 8 -6 0
3 -10 9 0
-4 -5 10 0
-9 12 1 0
-8 9 -7 0
